(set-option :print-success false)
(set-logic QF_UF)
(declare-sort x157 0)
(declare-sort x233 0)
(declare-fun x257 () x233)
(declare-fun x172 (x233 x233) x233)
(declare-fun x51 () x233)
(declare-fun x183 () x233)
(declare-fun x55 () x233)
(declare-fun x112 () x233)
(declare-fun x54 (x233 x233) x233)
(declare-fun x179 () x233)
(declare-fun x201 () x233)
(assert (and (not (= x51 x179)) (and (and (not (= x51 x112)) (and (and (not (= x51 x257)) (and (not (= x257 x112)) (and (and (and (and (not (= x257 x201)) (and (not (= x183 x179)) (and (and (and (not (= x257 x183)) (not (= x201 x183))) (not (= x112 x183))) (not (= x183 x51))))) (not (= x201 x112))) (not (= x51 x201))) (not (= x201 x179))))) (not (= x179 x257)))) (not (= x112 x179)))))
(assert (not (and (and (and (and (and (and (and (and (= (x54 x51 x51) x257) (and (= x183 (x54 x51 x112)) (and (= (x54 x51 x257) x179) (and (and (= (x54 x51 x183) x51) (and (= (x54 x112 x179) x257) (and (= x179 (x54 x112 x51)) (and (= (x54 x112 x112) x51) (and (and (and (= x112 (x54 x112 x183)) (and (and (and (= (x54 x257 x112) x201) (and (= (x54 x257 x257) x51) (and (= (x54 x257 x201) x179) (and (= x257 (x54 x257 x183)) (and (= x51 (x54 x201 x179)) (and (and (and (= (x54 x201 x257) x183) (and (= x257 (x54 x201 x201)) (and (= (x54 x201 x183) x201) (and (= (x54 x183 x179) x179) (and (and (= (x54 x183 x112) x112) (and (and (= x183 (x54 x183 x183)) (= x201 (x54 x183 x201))) (= (x54 x183 x257) x257))) (= (x54 x183 x51) x51)))))) (= (x54 x201 x112) x179)) (= x112 (x54 x201 x51)))))))) (= (x54 x257 x51) x183)) (= (x54 x257 x179) x112))) (= (x54 x112 x201) x183)) (= x201 (x54 x112 x257))))))) (= (x54 x51 x201) x112))))) (= (x54 x51 x179) x201)) (= x179 (x54 x179 x183))) (= (x54 x179 x201) x51)) (= x112 (x54 x179 x257))) (= (x54 x179 x112) x257)) (= x201 (x54 x179 x51))) (= (x54 x179 x179) x183))))
(assert (let ((x6 (x54 x179 x51)) (x198 (x54 x112 x112)) (x185 (x54 x257 x201)) (x162 (x54 x201 x179)) (x47 (x54 x179 x201)) (x263 (x54 x51 x51)) (x180 (x54 x201 x112)) (x149 (x54 x183 x201)) (x21 (x54 x183 x51)) (x154 (x54 x201 x183)) (x102 (x54 x183 x112)) (x99 (x54 x183 x183)) (x236 (x54 x112 x183)) (x10 (x54 x51 x183)) (x9 (x54 x112 x179)) (x245 (x54 x179 x257)) (x11 (x54 x112 x51)) (x142 (x54 x257 x257)) (x189 (x54 x51 x112)) (x15 (x54 x179 x183)) (x68 (x54 x51 x257)) (x256 (x54 x257 x112)) (x234 (x54 x112 x257)) (x249 (x54 x51 x201)) (x260 (x54 x201 x51)) (x261 (x54 x112 x201)) (x108 (x54 x257 x183)) (x109 (x54 x201 x201)) (x224 (x54 x51 x179)) (x153 (x54 x201 x257)) (x44 (x54 x257 x179)) (x18 (x54 x179 x179)) (x244 (x54 x179 x112)) (x59 (x54 x257 x51)) (x52 (x54 x183 x179)) (x115 (x54 x183 x257))) (and (and (and (and (and (not (= x6 x11)) (and (not (= x11 x263)) (and (not (= x59 x6)) (and (and (not (= x11 x59)) (and (not (= x260 x6)) (and (not (= x260 x263)) (and (not (= x11 x260)) (and (and (not (= x21 x6)) (and (not (= x21 x263)) (and (not (= x21 x11)) (and (not (= x21 x260)) (not (= x21 x59)))))) (not (= x260 x59))))))) (not (= x59 x263)))))) (not (= x6 x263))) (and (and (and (not (= x198 x244)) (and (not (= x198 x189)) (and (not (= x244 x256)) (and (not (= x189 x256)) (and (not (= x198 x256)) (and (not (= x244 x180)) (and (not (= x180 x189)) (and (not (= x180 x198)) (and (and (and (not (= x189 x102)) (and (and (not (= x180 x102)) (not (= x256 x102))) (not (= x102 x198)))) (not (= x244 x102))) (not (= x180 x256))))))))))) (not (= x244 x189))) (and (and (and (and (not (= x47 x261)) (and (not (= x249 x261)) (and (not (= x47 x185)) (and (not (= x249 x185)) (and (not (= x261 x185)) (and (and (and (not (= x109 x261)) (and (not (= x109 x185)) (and (not (= x47 x149)) (and (not (= x249 x149)) (and (and (not (= x109 x149)) (not (= x149 x185))) (not (= x149 x261))))))) (not (= x249 x109))) (not (= x47 x109)))))))) (not (= x249 x47))) (and (not (= x10 x15)) (and (and (not (= x236 x10)) (and (and (not (= x10 x108)) (and (and (and (and (and (not (= x154 x108)) (and (and (and (not (= x236 x99)) (and (not (= x154 x99)) (not (= x99 x108)))) (not (= x99 x10))) (not (= x99 x15)))) (not (= x236 x154))) (not (= x10 x154))) (not (= x154 x15))) (not (= x108 x236)))) (not (= x15 x108)))) (not (= x236 x15))))) (and (not (= x68 x245)) (and (not (= x245 x234)) (and (not (= x68 x234)) (and (not (= x245 x142)) (and (and (and (and (not (= x153 x68)) (and (not (= x153 x234)) (and (not (= x142 x153)) (and (not (= x115 x245)) (and (and (not (= x115 x234)) (and (not (= x153 x115)) (not (= x115 x142)))) (not (= x115 x68))))))) (not (= x153 x245))) (not (= x142 x234))) (not (= x68 x142)))))))))) (and (and (and (and (and (not (= x224 x44)) (and (and (not (= x18 x162)) (and (and (not (= x162 x9)) (and (not (= x162 x44)) (and (not (= x18 x52)) (and (and (and (not (= x52 x44)) (not (= x52 x162))) (not (= x9 x52))) (not (= x224 x52)))))) (not (= x162 x224)))) (not (= x9 x44)))) (not (= x44 x18))) (not (= x224 x9))) (not (= x9 x18))) (not (= x224 x18)))) (and (and (and (not (= x18 x244)) (and (not (= x6 x244)) (and (not (= x245 x18)) (and (and (not (= x244 x245)) (and (and (and (not (= x244 x47)) (and (and (not (= x18 x15)) (and (and (and (not (= x245 x15)) (not (= x47 x15))) (not (= x15 x244))) (not (= x15 x6)))) (not (= x47 x245)))) (not (= x6 x47))) (not (= x18 x47)))) (not (= x6 x245)))))) (not (= x6 x18))) (and (and (and (and (not (= x189 x263)) (and (not (= x68 x224)) (and (and (not (= x68 x189)) (and (and (not (= x249 x263)) (and (and (and (not (= x10 x224)) (and (not (= x263 x10)) (and (and (not (= x10 x68)) (not (= x10 x249))) (not (= x189 x10))))) (not (= x249 x68))) (not (= x189 x249)))) (not (= x249 x224)))) (not (= x263 x68))))) (not (= x189 x224))) (not (= x263 x224))) (and (and (and (not (= x9 x198)) (and (not (= x198 x11)) (and (not (= x234 x9)) (and (not (= x234 x11)) (and (and (and (and (and (and (and (and (not (= x198 x236)) (and (not (= x234 x236)) (not (= x236 x261)))) (not (= x11 x236))) (not (= x9 x236))) (not (= x261 x234))) (not (= x198 x261))) (not (= x11 x261))) (not (= x261 x9))) (not (= x234 x198))))))) (not (= x11 x9))) (and (and (and (not (= x256 x44)) (and (and (not (= x142 x44)) (and (not (= x142 x59)) (and (and (not (= x44 x185)) (and (not (= x59 x185)) (and (and (and (not (= x44 x108)) (and (and (not (= x108 x256)) (and (not (= x142 x108)) (not (= x185 x108)))) (not (= x108 x59)))) (not (= x142 x185))) (not (= x185 x256))))) (not (= x256 x142))))) (not (= x59 x256)))) (not (= x59 x44))) (and (and (and (and (and (and (and (and (not (= x109 x162)) (and (and (not (= x109 x180)) (and (not (= x109 x153)) (and (and (not (= x260 x154)) (and (not (= x154 x180)) (and (not (= x109 x154)) (not (= x154 x153))))) (not (= x162 x154))))) (not (= x109 x260)))) (not (= x180 x153))) (not (= x260 x153))) (not (= x153 x162))) (not (= x180 x260))) (not (= x162 x180))) (not (= x260 x162))) (and (and (and (not (= x21 x102)) (and (and (and (and (not (= x52 x149)) (and (not (= x21 x149)) (and (and (and (not (= x52 x99)) (and (and (not (= x99 x102)) (and (not (= x115 x99)) (not (= x149 x99)))) (not (= x99 x21)))) (not (= x149 x115))) (not (= x102 x149))))) (not (= x115 x102))) (not (= x21 x115))) (not (= x115 x52)))) (not (= x102 x52))) (not (= x52 x21)))))))))))
(assert (let ((x245 (x54 x179 x257)) (x236 (x54 x112 x183)) (x9 (x54 x112 x179)) (x256 (x54 x257 x112)) (x11 (x54 x112 x51)) (x263 (x54 x51 x51)) (x142 (x54 x257 x257)) (x244 (x54 x179 x112)) (x115 (x54 x183 x257)) (x47 (x54 x179 x201)) (x68 (x54 x51 x257)) (x108 (x54 x257 x183)) (x99 (x54 x183 x183)) (x18 (x54 x179 x179)) (x260 (x54 x201 x51)) (x198 (x54 x112 x112)) (x189 (x54 x51 x112)) (x234 (x54 x112 x257)) (x52 (x54 x183 x179)) (x153 (x54 x201 x257)) (x149 (x54 x183 x201)) (x109 (x54 x201 x201)) (x21 (x54 x183 x51)) (x162 (x54 x201 x179)) (x224 (x54 x51 x179)) (x185 (x54 x257 x201)) (x154 (x54 x201 x183)) (x249 (x54 x51 x201)) (x10 (x54 x51 x183)) (x6 (x54 x179 x51)) (x59 (x54 x257 x51)) (x180 (x54 x201 x112)) (x44 (x54 x257 x179)) (x261 (x54 x112 x201)) (x15 (x54 x179 x183)) (x102 (x54 x183 x112))) (and (and (or (= x179 (x54 x6 x6)) (or (or (= x112 (x54 x11 x11)) (or (or (= (x54 x260 x260) x201) (= x183 (x54 x21 x21))) (= x257 (x54 x59 x59)))) (= x51 (x54 x263 x263)))) (and (and (and (or (or (= x51 (x54 x10 x10)) (or (= x112 (x54 x236 x236)) (or (= x257 (x54 x108 x108)) (or (= (x54 x99 x99) x183) (= x201 (x54 x154 x154)))))) (= x179 (x54 x15 x15))) (or (or (= (x54 x249 x249) x51) (or (= (x54 x261 x261) x112) (or (or (= (x54 x149 x149) x183) (= x201 (x54 x109 x109))) (= (x54 x185 x185) x257)))) (= (x54 x47 x47) x179))) (or (= x179 (x54 x245 x245)) (or (or (or (or (= x201 (x54 x153 x153)) (= x183 (x54 x115 x115))) (= (x54 x142 x142) x257)) (= x112 (x54 x234 x234))) (= x51 (x54 x68 x68))))) (or (= x179 (x54 x244 x244)) (or (= (x54 x189 x189) x51) (or (or (= x257 (x54 x256 x256)) (or (= (x54 x180 x180) x201) (= x183 (x54 x102 x102)))) (= (x54 x198 x198) x112)))))) (or (or (or (or (= (x54 x44 x44) x257) (or (= x183 (x54 x52 x52)) (= x201 (x54 x162 x162)))) (= x112 (x54 x9 x9))) (= x51 (x54 x224 x224))) (= x179 (x54 x18 x18))))))
(assert (and (and (and (and (and (and (= (x54 x257 x55) x257) (= x257 (x54 x55 x257))) (and (and (= (x54 x55 x201) x201) (= (x54 x201 x55) x201)) (and (= x183 (x54 x183 x55)) (= (x54 x55 x183) x183)))) (and (= (x54 x112 x55) x112) (= (x54 x55 x112) x112))) (and (= (x54 x55 x51) x51) (= (x54 x51 x55) x51))) (and (= x179 (x54 x179 x55)) (= (x54 x55 x179) x179))) (or (= x179 x55) (or (= x55 x51) (or (or (= x257 x55) (or (= x55 x201) (= x55 x183))) (= x55 x112))))))
(assert (let ((x263 (x54 x257 x201)) (x190 (x54 x257 x112)) (x21 (x54 x201 x51)) (x115 (x54 x179 x183)) (x108 (x54 x183 x201)) (x61 (x54 x179 x51)) (x52 (x54 x51 x201)) (x154 (x54 x183 x183)) (x261 (x54 x257 x183)) (x5 (x54 x179 x257)) (x47 (x54 x51 x183)) (x65 (x54 x51 x179)) (x10 (x54 x183 x112)) (x167 (x54 x112 x112)) (x113 (x54 x51 x51)) (x249 (x54 x112 x183)) (x15 (x54 x183 x51)) (x253 (x54 x51 x257)) (x160 (x54 x112 x257)) (x162 (x54 x179 x201)) (x237 (x54 x179 x179)) (x198 (x54 x201 x201)) (x146 (x54 x257 x51)) (x6 (x54 x112 x201)) (x189 (x54 x201 x257)) (x185 (x54 x201 x183)) (x199 (x54 x51 x112)) (x244 (x54 x201 x112)) (x155 (x54 x112 x51)) (x260 (x54 x201 x179)) (x236 (x54 x183 x257)) (x149 (x54 x183 x179)) (x176 (x54 x257 x179)) (x70 (x54 x112 x179)) (x217 (x54 x257 x257)) (x121 (x54 x179 x112))) (let ((x73 (= x201 x149)) (x60 (= x183 x263)) (x177 (= x244 x183)) (x20 (= x179 x237)) (x14 (= x244 x51)) (x34 (= x201 x52)) (x98 (= x15 x201)) (x40 (= x244 x179)) (x202 (= x257 x52)) (x186 (= x257 x146)) (x35 (= x162 x201)) (x252 (= x179 x155)) (x196 (= x257 x6)) (x251 (= x257 x261)) (x92 (= x121 x183)) (x164 (= x183 x167)) (x86 (= x112 x217)) (x26 (= x249 x183)) (x82 (= x185 x179)) (x203 (= x51 x236)) (x18 (= x112 x185)) (x234 (= x154 x51)) (x109 (= x154 x201)) (x120 (= x179 x190)) (x241 (= x162 x183)) (x17 (= x257 x113)) (x171 (= x176 x201)) (x13 (= x51 x190)) (x28 (= x162 x112)) (x19 (= x149 x183)) (x72 (= x70 x201)) (x165 (= x146 x179)) (x79 (= x112 x244)) (x238 (= x179 x261)) (x204 (= x253 x112)) (x37 (= x112 x108)) (x150 (= x257 x189)) (x195 (= x70 x257)) (x105 (= x121 x257)) (x80 (= x257 x199)) (x53 (= x112 x237)) (x32 (= x217 x183)) (x215 (= x260 x257)) (x56 (= x51 x21)) (x45 (= x160 x179)) (x118 (= x179 x113)) (x44 (= x185 x257)) (x232 (= x201 x47)) (x123 (= x201 x199)) (x262 (= x179 x217)) (x168 (= x51 x149)) (x124 (= x51 x162)) (x191 (= x183 x115)) (x188 (= x201 x21)) (x99 (= x183 x154)) (x117 (= x51 x15)) (x258 (= x115 x257)) (x38 (= x155 x257)) (x194 (= x112 x263)) (x228 (= x115 x112)) (x221 (= x236 x201)) (x76 (= x261 x51)) (x59 (= x201 x108)) (x163 (= x237 x201)) (x140 (= x183 x253)) (x187 (= x183 x61)) (x90 (= x257 x21)) (x129 (= x217 x257)) (x219 (= x257 x160)) (x212 (= x183 x5)) (x192 (= x253 x51)) (x213 (= x160 x201)) (x103 (= x176 x183)) (x69 (= x21 x112)) (x170 (= x10 x257)) (x29 (= x249 x179)) (x94 (= x146 x183)) (x85 (= x179 x61)) (x4 (= x51 x198)) (x259 (= x190 x183)) (x243 (= x257 x244)) (x247 (= x146 x201)) (x116 (= x51 x65)) (x132 (= x253 x257)) (x57 (= x199 x183)) (x126 (= x146 x51)) (x31 (= x113 x51)) (x74 (= x190 x201)) (x25 (= x51 x217)) (x36 (= x183 x155)) (x175 (= x112 x15)) (x141 (= x108 x51)) (x110 (= x201 x253)) (x58 (= x61 x112)) (x78 (= x149 x179)) (x89 (= x160 x112)) (x81 (= x236 x257)) (x144 (= x61 x257)) (x8 (= x198 x179)) (x46 (= x201 x261)) (x111 (= x6 x51)) (x211 (= x183 x52)) (x248 (= x185 x51)) (x24 (= x201 x5)) (x7 (= x189 x112)) (x231 (= x237 x257)) (x174 (= x115 x51)) (x158 (= x179 x121)) (x49 (= x183 x160)) (x16 (= x244 x201)) (x136 (= x183 x113)) (x42 (= x167 x51)) (x250 (= x108 x179)) (x200 (= x162 x179)) (x97 (= x237 x51)) (x218 (= x183 x21)) (x156 (= x257 x263)) (x96 (= x10 x51)) (x43 (= x260 x112)) (x254 (= x121 x201)) (x143 (= x15 x179)) (x214 (= x257 x249)) (x178 (= x189 x201)) (x193 (= x65 x201)) (x229 (= x183 x189)) (x9 (= x108 x257)) (x181 (= x179 x189)) (x256 (= x185 x201)) (x102 (= x108 x183)) (x104 (= x5 x257)) (x23 (= x183 x260)) (x75 (= x201 x249)) (x152 (= x112 x113)) (x128 (= x201 x61)) (x1 (= x260 x201)) (x22 (= x113 x201)) (x239 (= x52 x51)) (x87 (= x176 x51)) (x133 (= x167 x201)) (x30 (= x199 x51)) (x184 (= x10 x112)) (x142 (= x154 x112)) (x127 (= x112 x155)) (x88 (= x10 x183)) (x182 (= x257 x162)) (x207 (= x51 x61)) (x220 (= x183 x65)) (x137 (= x47 x51)) (x93 (= x70 x183)) (x95 (= x179 x263)) (x245 (= x185 x183)) (x91 (= x51 x249)) (x67 (= x112 x65)) (x159 (= x257 x176)) (x145 (= x167 x179)) (x255 (= x51 x189)) (x135 (= x155 x201)) (x131 (= x179 x6)) (x224 (= x198 x257)) (x242 (= x160 x51)) (x138 (= x183 x261)) (x125 (= x198 x112)) (x153 (= x154 x257)) (x64 (= x51 x260)) (x27 (= x261 x112)) (x130 (= x149 x112)) (x107 (= x257 x15)) (x62 (= x179 x199)) (x223 (= x6 x201)) (x169 (= x249 x112)) (x226 (= x47 x179)) (x227 (= x112 x47)) (x119 (= x52 x112)) (x206 (= x47 x257)) (x12 (= x183 x15)) (x100 (= x121 x112)) (x230 (= x51 x155)) (x50 (= x236 x112)) (x48 (= x149 x257)) (x151 (= x21 x179)) (x134 (= x183 x47)) (x148 (= x190 x257)) (x11 (= x198 x201)) (x39 (= x70 x179)) (x173 (= x179 x260)) (x240 (= x257 x167)) (x205 (= x179 x52)) (x180 (= x198 x183)) (x68 (= x154 x179)) (x114 (= x6 x183)) (x246 (= x201 x115)) (x101 (= x179 x236)) (x209 (= x115 x179)) (x197 (= x112 x146)) (x33 (= x112 x6)) (x122 (= x179 x253)) (x139 (= x263 x51)) (x210 (= x70 x112)) (x83 (= x257 x65)) (x161 (= x65 x179)) (x106 (= x5 x179)) (x63 (= x121 x51)) (x3 (= x217 x201)) (x235 (= x236 x183)) (x71 (= x199 x112)) (x222 (= x237 x183)) (x66 (= x112 x176)) (x216 (= x201 x10)) (x41 (= x10 x179)) (x77 (= x179 x176)) (x2 (= x167 x112)) (x147 (= x112 x190)) (x208 (= x51 x5)) (x225 (= x70 x51)) (x166 (= x5 x112)) (x84 (= x201 x263))) (and (and (and (and (and (and (or x231 (or (or x105 (or (or x182 x258) x104)) x144)) (or x231 (or (or (or (or x215 x48) x159) x195) x83))) (and (and (or (or (or x93 (or (or x23 x19) x103)) x220) x222) (or x222 (or x187 (or x92 (or x212 (or x241 x191)))))) (and (or (or (or (or x171 (or x1 x73)) x72) x193) x163) (or x163 (or (or x254 (or x24 (or x35 x246))) x128))))) (and (or x53 (or x58 (or (or x166 (or x228 x28)) x100))) (or (or (or (or (or x130 x43) x66) x210) x67) x53))) (and (or (or x207 (or (or x208 (or x174 x124)) x63)) x97) (or x97 (or x116 (or (or (or x64 x168) x87) x225))))) (and (or x20 (or (or x158 (or (or x200 x209) x106)) x85)) (or (or (or x39 (or (or x78 x173) x77)) x161) x20))) (and (and (and (or (or (or (or x122 (or x205 x226)) x62) x118) x161) (or x85 (or (or x252 (or (or x143 x151) x165)) x118))) (and (and (and (and (or x144 (or (or (or x186 (or x107 x90)) x38) x17)) (or (or x17 (or x80 (or (or x206 x202) x132))) x83)) (and (and (or x193 (or x22 (or x123 (or x110 (or x232 x34))))) (or (or (or x135 (or (or x188 x98) x247)) x22) x128)) (and (or (or (or x57 (or (or x211 x134) x140)) x136) x220) (or x187 (or (or x36 (or (or x218 x12) x94)) x136))))) (and (or (or (or x127 (or x197 (or x175 x69))) x152) x58) (or x67 (or x152 (or x71 (or x204 (or x119 x227))))))) (and (or (or (or x30 (or (or x239 x137) x192)) x31) x116) (or x207 (or (or x230 (or (or x56 x117) x126)) x31))))) (and (and (and (or (or (or (or x45 (or x29 x131)) x145) x252) x39) (or (or (or (or x120 (or x41 x40)) x145) x62) x158)) (and (and (or (or x30 (or x42 (or x13 (or x14 x96)))) x63) (or (or (or x42 (or x242 (or x111 x91))) x230) x225)) (and (and (or (or (or (or (or x33 x169) x89) x2) x127) x210) (or x100 (or (or x2 (or x147 (or x79 x184))) x71))) (and (and (or (or (or (or (or x214 x196) x219) x240) x38) x195) (or x105 (or x80 (or x240 (or (or x243 x170) x148))))) (and (and (or (or (or x133 (or x213 (or x75 x223))) x135) x72) (or (or x123 (or x133 (or (or x216 x16) x74))) x254)) (and (or (or (or x164 (or x259 (or x177 x88))) x57) x92) (or (or (or (or x49 (or x114 x26)) x164) x36) x93))))))) (and (and (and (and (or x173 (or x151 (or (or (or x8 x82) x181) x40))) (or x200 (or x205 (or x131 (or x95 (or x250 x8)))))) (and (and (and (or x43 (or (or (or x7 (or x18 x125)) x79) x69)) (or (or x119 (or x33 (or (or x125 x37) x194))) x28)) (and (and (or (or (or x243 (or (or x44 x224) x150)) x90) x215) (or x182 (or (or x196 (or (or x224 x9) x156)) x202))) (and (and (or x23 (or x218 (or x177 (or (or x180 x245) x229)))) (or x241 (or (or (or x60 (or x102 x180)) x114) x211))) (and (or x1 (or x188 (or x16 (or x178 (or x256 x11))))) (or (or (or x223 (or (or x59 x11) x84)) x34) x35))))) (and (or x64 (or (or (or x255 (or x248 x4)) x14) x56)) (or (or x239 (or x111 (or x139 (or x4 x141)))) x124)))) (and (and (or (or x226 (or (or (or x82 x68) x238) x29)) x209) (or (or x143 (or (or x101 (or x250 x68)) x41)) x78)) (and (and (and (or x130 (or x175 (or x184 (or x50 (or x37 x142))))) (or (or (or (or x27 (or x18 x142)) x169) x227) x228)) (and (and (or (or (or (or (or x153 x44) x251) x214) x206) x258) (or x48 (or x107 (or (or x81 (or x153 x9)) x170)))) (and (and (or (or (or (or x235 (or x99 x102)) x88) x12) x19) (or (or (or (or x138 (or x99 x245)) x26) x134) x191)) (and (or x73 (or x98 (or x216 (or x221 (or x59 x109))))) (or (or (or x75 (or (or x109 x256) x46)) x232) x246))))) (and (or x168 (or x117 (or (or (or x141 x234) x203) x96))) (or x174 (or x137 (or (or (or x248 x234) x76) x91))))))) (and (and (or (or (or x45 (or (or x181 x101) x262)) x122) x106) (or (or x165 (or (or (or x238 x95) x262) x120)) x77)) (and (and (or x87 (or (or (or x25 (or x76 x139)) x13) x126)) (or (or x192 (or (or (or x203 x255) x25) x242)) x208)) (and (and (and (and (or x171 (or x247 (or x74 (or (or x46 x84) x3)))) (or (or (or (or x3 (or x221 x178)) x213) x110) x24)) (and (or (or x140 (or x49 (or (or x235 x229) x32))) x212) (or x103 (or x94 (or x259 (or (or x138 x60) x32)))))) (and (or (or x132 (or x219 (or (or x81 x150) x129))) x104) (or (or x186 (or x148 (or (or x156 x251) x129))) x159))) (and (or x66 (or (or x147 (or x86 (or x194 x27))) x197)) (or x166 (or (or (or x86 (or x7 x50)) x89) x204)))))))))))))
(assert (let ((x162 (x54 x179 x201)) (x149 (x54 x201 x183)) (x189 (x54 x112 x51)) (x154 (x54 x183 x201)) (x224 (x54 x179 x51)) (x244 (x54 x112 x179)) (x68 (x54 x257 x51)) (x52 (x54 x179 x183)) (x109 (x54 x201 x201)) (x11 (x54 x51 x112)) (x47 (x54 x201 x179)) (x261 (x54 x201 x112)) (x142 (x54 x257 x257)) (x99 (x54 x183 x183)) (x108 (x54 x183 x257)) (x180 (x54 x112 x201)) (x260 (x54 x51 x201)) (x185 (x54 x201 x257)) (x59 (x54 x51 x257)) (x6 (x54 x51 x179)) (x9 (x54 x179 x112)) (x256 (x54 x112 x257)) (x249 (x54 x201 x51)) (x18 (x54 x179 x179)) (x44 (x54 x179 x257)) (x21 (x54 x51 x183)) (x15 (x54 x183 x179)) (x102 (x54 x112 x183)) (x10 (x54 x183 x51)) (x263 (x54 x51 x51)) (x115 (x54 x257 x183)) (x153 (x54 x257 x201)) (x234 (x54 x257 x112)) (x245 (x54 x257 x179)) (x236 (x54 x183 x112)) (x198 (x54 x112 x112))) (and (and (and (and (and (or (or (or (or (= (x54 x185 x185) x257) (or (= (x54 x109 x109) x201) (= x183 (x54 x149 x149)))) (= (x54 x261 x261) x112)) (= (x54 x249 x249) x51)) (= (x54 x47 x47) x179)) (or (= x179 (x54 x15 x15)) (or (or (= (x54 x236 x236) x112) (or (= x257 (x54 x108 x108)) (or (= (x54 x99 x99) x183) (= (x54 x154 x154) x201)))) (= x51 (x54 x10 x10))))) (or (or (= (x54 x68 x68) x51) (or (= x112 (x54 x234 x234)) (or (= x257 (x54 x142 x142)) (or (= x201 (x54 x153 x153)) (= (x54 x115 x115) x183))))) (= x179 (x54 x245 x245)))) (or (= x179 (x54 x244 x244)) (or (= x51 (x54 x189 x189)) (or (or (= (x54 x256 x256) x257) (or (= x201 (x54 x180 x180)) (= (x54 x102 x102) x183))) (= (x54 x198 x198) x112))))) (or (= (x54 x6 x6) x179) (or (= x51 (x54 x263 x263)) (or (or (or (= (x54 x260 x260) x201) (= x183 (x54 x21 x21))) (= (x54 x59 x59) x257)) (= (x54 x11 x11) x112))))) (or (or (or (= x112 (x54 x9 x9)) (or (= (x54 x44 x44) x257) (or (= (x54 x162 x162) x201) (= (x54 x52 x52) x183)))) (= (x54 x224 x224) x51)) (= (x54 x18 x18) x179)))))
(assert (not (and (= x183 (x54 x179 x179)) (and (and (and (and (and (and (= (x54 x51 x179) x201) (and (= (x54 x51 x51) x257) (and (= x183 (x54 x51 x112)) (and (and (and (= (x54 x51 x183) x51) (and (and (and (and (= (x54 x112 x257) x51) (and (= (x54 x112 x201) x183) (and (= (x54 x112 x183) x112) (and (and (= (x54 x257 x51) x183) (and (= x51 (x54 x257 x112)) (and (and (= (x54 x257 x201) x179) (and (= (x54 x257 x183) x257) (and (and (and (and (and (= (x54 x201 x201) x257) (and (and (and (= (x54 x183 x51) x51) (and (and (= x257 (x54 x183 x257)) (and (= (x54 x183 x201) x201) (= x183 (x54 x183 x183)))) (= (x54 x183 x112) x112))) (= x179 (x54 x183 x179))) (= x201 (x54 x201 x183)))) (= x183 (x54 x201 x257))) (= x179 (x54 x201 x112))) (= x112 (x54 x201 x51))) (= (x54 x201 x179) x51)))) (= (x54 x257 x257) x201)))) (= (x54 x257 x179) x112))))) (= (x54 x112 x112) x201)) (= (x54 x112 x51) x179)) (= (x54 x112 x179) x257))) (= (x54 x51 x201) x112)) (= (x54 x51 x257) x179))))) (= x179 (x54 x179 x183))) (= (x54 x179 x201) x51)) (= (x54 x179 x257) x112)) (= (x54 x179 x112) x257)) (= (x54 x179 x51) x201)))))
(assert (let ((x108 (x54 x183 x257)) (x44 (x54 x179 x257)) (x162 (x54 x179 x201)) (x180 (x54 x112 x201)) (x154 (x54 x183 x201)) (x68 (x54 x257 x51)) (x18 (x54 x179 x179)) (x10 (x54 x183 x51)) (x256 (x54 x112 x257)) (x6 (x54 x51 x179)) (x102 (x54 x112 x183)) (x52 (x54 x179 x183)) (x263 (x54 x51 x51)) (x224 (x54 x179 x51)) (x9 (x54 x179 x112)) (x149 (x54 x201 x183)) (x189 (x54 x112 x51)) (x245 (x54 x257 x179)) (x236 (x54 x183 x112)) (x244 (x54 x112 x179)) (x185 (x54 x201 x257)) (x153 (x54 x257 x201)) (x109 (x54 x201 x201)) (x234 (x54 x257 x112)) (x261 (x54 x201 x112)) (x21 (x54 x51 x183)) (x15 (x54 x183 x179)) (x47 (x54 x201 x179)) (x11 (x54 x51 x112)) (x249 (x54 x201 x51)) (x142 (x54 x257 x257)) (x99 (x54 x183 x183)) (x198 (x54 x112 x112)) (x115 (x54 x257 x183)) (x59 (x54 x51 x257)) (x260 (x54 x51 x201))) (and (and (or (= x18 x18) (not (= x179 (x54 x179 x18)))) (and (and (and (or (= x44 x245) (not (= x257 (x54 x179 x44)))) (and (or (not (= (x54 x179 x162) x201)) (= x162 x47)) (or (= x52 x15) (not (= (x54 x179 x52) x183))))) (or (not (= (x54 x179 x9) x112)) (= x244 x9))) (or (not (= x51 (x54 x179 x224))) (= x224 x6)))) (and (and (and (and (and (or (= x52 x15) (not (= x179 (x54 x183 x15)))) (and (or (not (= (x54 x183 x10) x51)) (= x21 x10)) (and (or (not (= (x54 x183 x236) x112)) (= x236 x102)) (and (and (or (not (= x201 (x54 x183 x154))) (= x154 x149)) (or (not (= x183 (x54 x183 x99))) (= x99 x99))) (or (not (= x257 (x54 x183 x108))) (= x115 x108)))))) (and (or (= x162 x47) (not (= (x54 x201 x47) x179))) (and (or (= x260 x249) (not (= x51 (x54 x201 x249)))) (and (and (or (= x185 x153) (not (= (x54 x201 x185) x257))) (and (or (= x149 x154) (not (= x183 (x54 x201 x149)))) (or (not (= (x54 x201 x109) x201)) (= x109 x109)))) (or (= x180 x261) (not (= x112 (x54 x201 x261)))))))) (and (and (and (and (or (not (= x257 (x54 x257 x142))) (= x142 x142)) (and (or (= x115 x108) (not (= (x54 x257 x115) x183))) (or (= x185 x153) (not (= x201 (x54 x257 x153)))))) (or (not (= x112 (x54 x257 x234))) (= x234 x256))) (or (not (= (x54 x257 x68) x51)) (= x68 x59))) (or (not (= (x54 x257 x245) x179)) (= x245 x44)))) (and (and (and (and (and (or (not (= (x54 x112 x102) x183)) (= x102 x236)) (or (not (= x201 (x54 x112 x180))) (= x261 x180))) (or (= x256 x234) (not (= x257 (x54 x112 x256))))) (or (= x198 x198) (not (= (x54 x112 x198) x112)))) (or (= x11 x189) (not (= (x54 x112 x189) x51)))) (or (= x9 x244) (not (= x179 (x54 x112 x244)))))) (and (or (= x6 x224) (not (= (x54 x51 x6) x179))) (and (or (not (= (x54 x51 x263) x51)) (= x263 x263)) (and (and (and (or (not (= x201 (x54 x51 x260))) (= x260 x249)) (or (= x10 x21) (not (= (x54 x51 x21) x183)))) (or (= x59 x68) (not (= (x54 x51 x59) x257)))) (or (= x11 x189) (not (= (x54 x51 x11) x112))))))))))
(assert (let ((x15 (x54 x257 x183)) (x224 (x54 x179 x51)) (x47 (x54 x201 x112)) (x245 (x54 x51 x183)) (x236 (x54 x201 x201)) (x52 (x54 x179 x257)) (x234 (x54 x112 x112)) (x189 (x54 x112 x51)) (x99 (x54 x183 x183)) (x59 (x54 x179 x183)) (x18 (x54 x179 x179)) (x244 (x54 x51 x112)) (x142 (x54 x112 x257)) (x260 (x54 x183 x179)) (x263 (x54 x179 x201)) (x68 (x54 x183 x51)) (x11 (x54 x201 x179)) (x21 (x54 x51 x51)) (x108 (x54 x201 x183)) (x180 (x54 x51 x201)) (x198 (x54 x51 x257)) (x10 (x54 x183 x257)) (x44 (x54 x179 x112)) (x9 (x54 x51 x179)) (x149 (x54 x201 x257)) (x256 (x54 x257 x51)) (x162 (x54 x112 x179)) (x6 (x54 x257 x179)) (x102 (x54 x201 x51)) (x249 (x54 x112 x183)) (x154 (x54 x183 x201)) (x153 (x54 x257 x112)) (x185 (x54 x257 x257)) (x109 (x54 x257 x201)) (x261 (x54 x183 x112)) (x115 (x54 x112 x201))) (or (or (or (or (or (or (not (= x59 x260)) (not (= x11 x263))) (not (= x6 x52))) (not (= x44 x162))) (not (= x9 x224))) (not (= x18 x18))) (or (or (or (or (or (not (= x260 x59)) (or (or (or (not (= x10 x15)) (or (not (= x99 x99)) (not (= x154 x108)))) (not (= x249 x261))) (not (= x68 x245)))) (or (or (or (not (= x47 x115)) (or (or (not (= x154 x108)) (not (= x236 x236))) (not (= x149 x109)))) (not (= x180 x102))) (not (= x263 x11)))) (or (or (not (= x198 x256)) (or (not (= x153 x142)) (or (not (= x185 x185)) (or (not (= x15 x10)) (not (= x109 x149)))))) (not (= x52 x6)))) (or (not (= x44 x162)) (or (not (= x189 x244)) (or (or (or (not (= x47 x115)) (not (= x249 x261))) (not (= x142 x153))) (not (= x234 x234)))))) (or (or (or (not (= x189 x244)) (or (not (= x198 x256)) (or (not (= x68 x245)) (not (= x102 x180))))) (not (= x21 x21))) (not (= x9 x224)))))))
(assert (let ((x9 (x54 x179 x112)) (x185 (x54 x201 x257)) (x68 (x54 x257 x51)) (x234 (x54 x257 x112)) (x261 (x54 x201 x112)) (x245 (x54 x257 x179)) (x47 (x54 x201 x179)) (x153 (x54 x257 x201)) (x52 (x54 x179 x183)) (x10 (x54 x183 x51)) (x154 (x54 x183 x201)) (x198 (x54 x112 x112)) (x18 (x54 x179 x179)) (x180 (x54 x112 x201)) (x260 (x54 x51 x201)) (x236 (x54 x183 x112)) (x149 (x54 x201 x183)) (x263 (x54 x51 x51)) (x249 (x54 x201 x51)) (x44 (x54 x179 x257)) (x108 (x54 x183 x257)) (x189 (x54 x112 x51)) (x21 (x54 x51 x183)) (x224 (x54 x179 x51)) (x99 (x54 x183 x183)) (x6 (x54 x51 x179)) (x102 (x54 x112 x183)) (x11 (x54 x51 x112)) (x59 (x54 x51 x257)) (x142 (x54 x257 x257)) (x244 (x54 x112 x179)) (x109 (x54 x201 x201)) (x15 (x54 x183 x179)) (x115 (x54 x257 x183)) (x162 (x54 x179 x201)) (x256 (x54 x112 x257))) (and (and (and (or (= x224 x179) (or (= x224 x51) (or (= x112 x224) (or (= x224 x257) (or (= x201 x224) (= x183 x224)))))) (and (and (and (or (= x162 x179) (or (= x51 x162) (or (or (= x257 x162) (or (= x201 x162) (= x162 x183))) (= x112 x162)))) (or (or (or (or (or (= x201 x52) (= x52 x183)) (= x257 x52)) (= x112 x52)) (= x51 x52)) (= x52 x179))) (or (= x44 x179) (or (= x51 x44) (or (or (or (= x44 x201) (= x183 x44)) (= x257 x44)) (= x112 x44))))) (or (or (or (= x112 x9) (or (= x9 x257) (or (= x183 x9) (= x9 x201)))) (= x51 x9)) (= x179 x9)))) (or (or (or (= x112 x18) (or (or (= x18 x201) (= x183 x18)) (= x18 x257))) (= x18 x51)) (= x18 x179))) (and (and (and (or (or (or (or (or (= x263 x183) (= x263 x201)) (= x257 x263)) (= x263 x112)) (= x263 x51)) (= x179 x263)) (and (or (or (or (or (or (= x183 x11) (= x11 x201)) (= x257 x11)) (= x112 x11)) (= x11 x51)) (= x179 x11)) (and (and (or (or (or (or (or (= x260 x183) (= x201 x260)) (= x260 x257)) (= x260 x112)) (= x51 x260)) (= x179 x260)) (or (or (or (= x21 x112) (or (= x257 x21) (or (= x183 x21) (= x201 x21)))) (= x21 x51)) (= x179 x21))) (or (= x179 x59) (or (or (= x112 x59) (or (= x257 x59) (or (= x59 x183) (= x59 x201)))) (= x59 x51)))))) (or (= x179 x6) (or (or (or (= x6 x257) (or (= x6 x201) (= x6 x183))) (= x6 x112)) (= x6 x51)))) (and (and (and (and (and (and (and (or (or (or (= x112 x153) (or (or (= x153 x201) (= x153 x183)) (= x257 x153))) (= x153 x51)) (= x179 x153)) (or (= x179 x115) (or (= x51 x115) (or (or (or (= x201 x115) (= x183 x115)) (= x115 x257)) (= x112 x115))))) (or (or (or (or (= x257 x142) (or (= x142 x183) (= x142 x201))) (= x142 x112)) (= x142 x51)) (= x179 x142))) (or (or (or (or (= x257 x234) (or (= x234 x201) (= x183 x234))) (= x234 x112)) (= x51 x234)) (= x234 x179))) (or (= x68 x179) (or (= x68 x51) (or (or (= x257 x68) (or (= x68 x201) (= x68 x183))) (= x112 x68))))) (or (= x179 x245) (or (= x51 x245) (or (= x112 x245) (or (or (= x201 x245) (= x183 x245)) (= x245 x257)))))) (and (and (and (and (or (= x261 x179) (or (or (= x261 x112) (or (or (= x183 x261) (= x201 x261)) (= x257 x261))) (= x51 x261))) (and (and (or (= x109 x179) (or (= x51 x109) (or (or (= x257 x109) (or (= x183 x109) (= x201 x109))) (= x109 x112)))) (or (or (= x149 x51) (or (or (or (= x201 x149) (= x183 x149)) (= x149 x257)) (= x149 x112))) (= x179 x149))) (or (= x185 x179) (or (or (= x112 x185) (or (or (= x201 x185) (= x185 x183)) (= x185 x257))) (= x185 x51))))) (or (or (= x51 x249) (or (or (= x257 x249) (or (= x183 x249) (= x201 x249))) (= x112 x249))) (= x179 x249))) (or (or (or (= x47 x112) (or (= x47 x257) (or (= x183 x47) (= x201 x47)))) (= x47 x51)) (= x47 x179))) (and (or (= x179 x15) (or (= x51 x15) (or (or (= x257 x15) (or (= x201 x15) (= x183 x15))) (= x112 x15)))) (and (and (or (or (or (or (= x236 x257) (or (= x236 x183) (= x201 x236))) (= x236 x112)) (= x51 x236)) (= x179 x236)) (and (and (or (= x154 x179) (or (or (or (= x154 x257) (or (= x201 x154) (= x154 x183))) (= x154 x112)) (= x154 x51))) (or (= x99 x179) (or (= x99 x51) (or (= x99 x112) (or (= x257 x99) (or (= x99 x201) (= x99 x183))))))) (or (or (= x51 x108) (or (= x112 x108) (or (or (= x108 x183) (= x108 x201)) (= x108 x257)))) (= x179 x108)))) (or (= x179 x10) (or (= x51 x10) (or (= x112 x10) (or (= x257 x10) (or (= x10 x183) (= x10 x201)))))))))) (and (and (and (or (or (or (= x198 x112) (or (or (= x201 x198) (= x183 x198)) (= x198 x257))) (= x51 x198)) (= x198 x179)) (and (or (or (= x51 x256) (or (or (or (= x256 x201) (= x183 x256)) (= x257 x256)) (= x112 x256))) (= x256 x179)) (and (or (= x102 x179) (or (= x51 x102) (or (= x102 x112) (or (= x257 x102) (or (= x201 x102) (= x102 x183)))))) (or (or (or (= x180 x112) (or (or (= x180 x201) (= x180 x183)) (= x257 x180))) (= x180 x51)) (= x179 x180))))) (or (= x189 x179) (or (or (or (= x257 x189) (or (= x183 x189) (= x201 x189))) (= x189 x112)) (= x51 x189)))) (or (or (= x51 x244) (or (or (or (= x244 x183) (= x244 x201)) (= x257 x244)) (= x244 x112))) (= x179 x244))))))))
(assert (or (and (and (not (= x51 (x54 (x54 x179 x51) x179))) (and (and (and (not (= x201 (x54 (x54 x179 x201) x179))) (not (= (x54 (x54 x179 x183) x179) x183))) (not (= (x54 (x54 x179 x257) x179) x257))) (not (= (x54 (x54 x179 x112) x179) x112)))) (not (= (x54 (x54 x179 x179) x179) x179))) (or (and (not (= x179 (x54 (x54 x51 x179) x51))) (and (not (= x51 (x54 (x54 x51 x51) x51))) (and (not (= (x54 (x54 x51 x112) x51) x112)) (and (not (= (x54 (x54 x51 x257) x51) x257)) (and (not (= (x54 (x54 x51 x201) x51) x201)) (not (= x183 (x54 (x54 x51 x183) x51)))))))) (or (and (not (= x179 (x54 (x54 x112 x179) x112))) (and (not (= x51 (x54 (x54 x112 x51) x112))) (and (not (= x112 (x54 (x54 x112 x112) x112))) (and (not (= (x54 (x54 x112 x257) x112) x257)) (and (not (= (x54 (x54 x112 x183) x112) x183)) (not (= (x54 (x54 x112 x201) x112) x201))))))) (or (and (not (= (x54 (x54 x257 x179) x257) x179)) (and (and (not (= (x54 (x54 x257 x112) x257) x112)) (and (not (= x257 (x54 (x54 x257 x257) x257))) (and (not (= x201 (x54 (x54 x257 x201) x257))) (not (= (x54 (x54 x257 x183) x257) x183))))) (not (= (x54 (x54 x257 x51) x257) x51)))) (or (and (not (= x179 (x54 (x54 x183 x179) x183))) (and (not (= x51 (x54 (x54 x183 x51) x183))) (and (and (and (not (= x201 (x54 (x54 x183 x201) x183))) (not (= (x54 (x54 x183 x183) x183) x183))) (not (= (x54 (x54 x183 x257) x183) x257))) (not (= x112 (x54 (x54 x183 x112) x183)))))) (and (not (= x179 (x54 (x54 x201 x179) x201))) (and (and (and (and (not (= x183 (x54 (x54 x201 x183) x201))) (not (= x201 (x54 (x54 x201 x201) x201)))) (not (= x257 (x54 (x54 x201 x257) x201)))) (not (= x112 (x54 (x54 x201 x112) x201)))) (not (= (x54 (x54 x201 x51) x201) x51))))))))))
(assert (and (= (x54 x257 x201) x179) (and (and (and (= x183 (x54 x179 x179)) (= (x54 x201 x201) x257)) (= (x54 x201 x51) x112)) (= (x54 x179 x201) x51))))
(check-sat)
(exit)
